$ -------------------------------------------------------------------- $
$ WAVEWATCH III shell input file                                       $
$ -------------------------------------------------------------------- $
   F  F     Water levels
   F  F     Currents
   F  F     Winds
   F       Ice concentrations
   F       Assimilation data : Mean parameters
   F       Assimilation data : 1-D spectra
   F       Assimilation data : 2-D spectra.
$
   20180101 000000
   20180103 030000
$
   1
$
    20180101 000000  600  20180103 030000
   N
   SXY HS DIR T01 T02 UBR FP DEP
   20091111 000000     0  20091112 000000
   20091111 000000     0  20091112 000000
   20180101 010000      84600  20180104 010000
   20091111 000000     0  20091112 000000
   20091111 000000     0  20091112 000000
$
$
   'STP'
$ -------------------------------------------------------------------- $
$ End of input file                                                    $
$ -------------------------------------------------------------------- $
